c b=3,c=1591
p cnf 17 58
1 2 3 -6 0
2 3 -7 0
1 3 -8 0
2 3 -10 0
1 3 -11 0
2 3 -15 0
1 3 -16 0
1 2 -3 6 0
1 -3 7 0
2 -3 8 0
1 -3 10 0
1 2 -3 11 0
2 -3 15 0
2 -3 16 0
1 2 -5 0
1 2 -9 0
1 2 -12 0
1 2 -14 0
2 -17 0
-2 3 6 0
-2 3 9 0
3 -12 0
1 -2 3 15 0
3 -17 0
-2 -3 -6 0
-3 -9 0
-2 -3 12 0
1 -2 -3 -15 0
-2 -3 17 0
1 -2 5 0
1 -2 7 0
-2 -8 0
1 -2 10 0
1 -2 -11 0
1 -2 14 0
1 -2 -16 0
1 -4 0
1 -13 0
-1 3 6 0
-1 3 9 0
-1 3 -15 0
2 3 -16 0
-1 -3 -6 0
-1 -3 12 0
-1 -3 15 0
-1 2 5 0
-1 2 8 0
-1 2 -11 0
-1 2 14 0
-1 -2 3 16 0
-2 -3 -16 0
-1 -2 -5 0
-1 -2 11 0
-1 -2 -14 0
-1 4 0
-1 -7 0
-1 -10 0
-1 13 0
